WARNING: for repeatability, setting FPU to use double precision
============================[ Problem Statistics ]=============================
|                                                                             |
|  Number of variables:         35853                                         |
|  Number of clauses:         1012240                                         |
|  Parse time:                   0.21 s                                       |
|                                                                             |
============================[ Search Statistics ]==============================
| Conflicts |          ORIGINAL         |          LEARNT          | Progress |
|           |    Vars  Clauses Literals |    Limit  Clauses Lit/Cl |          |
===============================================================================
|       100 |   35846  1012240  2979595 |   371154      100     44 |  0.020 % |
|       250 |   35846  1012240  2979595 |   408270      250     45 |  0.020 % |
|       475 |   35846  1012240  2979595 |   449097      475     68 |  0.020 % |
|       812 |   35846  1012240  2979595 |   494006      812     62 |  0.020 % |
|      1318 |   35846  1012240  2979595 |   543407     1318     60 |  0.020 % |
|      2077 |   35846  1012240  2979595 |   597748     2077     65 |  0.020 % |
|      3216 |   35846  1012240  2979595 |   657523     3216     69 |  0.020 % |
|      4924 |   35846  1012240  2979595 |   723275     4924     57 |  0.020 % |
|      7486 |   35846  1012240  2979595 |   795602     7486     60 |  0.020 % |
|     11330 |   35846  1012240  2979595 |   875163    11330     62 |  0.020 % |
|     17096 |   35846  1012240  2979595 |   962679    17096     73 |  0.020 % |
|     25745 |   35846  1012240  2979595 |  1058947    25745     75 |  0.020 % |
|     38719 |   35846  1012240  2979595 |  1164842    38719     74 |  0.020 % |
|     58180 |   35846  1012240  2979595 |  1281326    58180     83 |  0.020 % |
|     87372 |   35846  1012240  2979595 |  1409459    87372     82 |  0.020 % |
|    131161 |   35846  1012240  2979595 |  1550405   131161     87 |  0.020 % |
===============================================================================
restarts              : 382
conflicts             : 143066         (14524 /sec)
decisions             : 2472170        (0.00 % random) (250982 /sec)
propagations          : 64434212       (6541544 /sec)
conflict literals     : 12527684       (10.15 % deleted)
Memory used           : 133.00 MB
CPU time              : 9.85 s

SATISFIABLE
